50, 14778
804, 845
448, 758
81, 421
321, 259
508, 512
933, 405
110, 784
552, 304
707, 477
548, 584
815, 909
541, 505
964, 282
604, 756
588, 619
445, 251
597, 910
385, 983
576, 811
291, 903
190, 311
187, 730
613, 899
657, 684
477, 473
90, 101
758, 435
877, 611
924, 914
843, 967
899, 478
924, 866
541, 261
392, 806
706, 549
276, 15
812, 720
850, 399
896, 825
590, 669
950, 2
580, 494
451, 868
661, 244
997, 326
917, 871
794, 192
83, 568
613, 239
487, 968
